NAME 
ROWS
 N  OBJ
 L  R0      
 L  R1      
 L  R2      
 E  R3      
 E  R4      
 E  R5      
 E  R6      
 E  R7      
 E  R8      
 E  R9      
 E  R10     
 E  R11     
 E  R12     
 E  R13     
 E  R14     
 E  R15     
 E  R16     
 E  R17     
COLUMNS
    MARKER    'MARKER'                 'INTORG'
    I0(6)     OBJ       -16
    I0(6)     R0        -35
    I0(6)     R1        70
    I0(6)     R2        50
    I0(6)     R4        7
    I0(6)     R5        18
    I0(6)     R17       1
    I1(7)     OBJ       157
    I1(7)     R0        49
    I1(7)     R1        -150
    I1(7)     R2        -198
    I1(7)     R3        7
    I1(7)     R4        4
    I1(7)     R6        11
    I1(7)     R17       1
    I2(7)     OBJ       123
    I2(7)     R0        185
    I2(7)     R1        -183
    I2(7)     R2        90
    I2(7)     R3        -1
    I2(7)     R4        9
    I2(7)     R8        8
    I2(7)     R17       1
    I3(9)     OBJ       108
    I3(9)     R0        -117
    I3(9)     R1        48
    I3(9)     R2        -31
    I3(9)     R3        19
    I3(9)     R4        -1
    I3(9)     R6        10
    I3(9)     R7        1
    I3(9)     R8        5
    I3(9)     R17       1
    I4(9)     OBJ       46
    I4(9)     R0        147
    I4(9)     R1        -11
    I4(9)     R2        -200
    I4(9)     R3        1
    I4(9)     R4        8
    I4(9)     R6        10
    I4(9)     R7        5
    I4(9)     R8        13
    I4(9)     R17       1
    I5(7)     OBJ       115
    I5(7)     R0        23
    I5(7)     R1        -106
    I5(7)     R2        69
    I5(7)     R3        4
    I5(7)     R5        16
    I5(7)     R8        16
    I5(7)     R17       1
    MARKER    'MARKER'                 'INTEND'
    C6(7)     OBJ       -8
    C6(7)     R0        -6
    C6(7)     R1        2
    C6(7)     R2        -3
    C6(7)     R3        7
    C6(7)     R7        12
    C6(7)     R8        12
    C6(7)     R11       -1
    C7(8)     OBJ       5
    C7(8)     R0        -9
    C7(8)     R2        -5
    C7(8)     R3        11
    C7(8)     R8        7
    C7(8)     R9        12
    C7(8)     R10       12
    C7(8)     R13       17
    C7(8)     R15       7
    C8(9)     OBJ       1
    C8(9)     R0        -3
    C8(9)     R1        -2
    C8(9)     R2        7
    C8(9)     R6        11
    C8(9)     R8        -1
    C8(9)     R9        10
    C8(9)     R10       1
    C8(9)     R11       16
    C8(9)     R15       3
    C9(13)    OBJ       6
    C9(13)    R0        7
    C9(13)    R1        3
    C9(13)    R2        3
    C9(13)    R4        6
    C9(13)    R5        9
    C9(13)    R6        3
    C9(13)    R7        9
    C9(13)    R9        9
    C9(13)    R10       7
    C9(13)    R11       15
    C9(13)    R12       13
    C9(13)    R13       19
    C9(13)    R14       10
    C10(8)    OBJ       -1
    C10(8)    R0        6
    C10(8)    R1        4
    C10(8)    R2        -3
    C10(8)    R3        5
    C10(8)    R6        14
    C10(8)    R7        8
    C10(8)    R9        17
    C10(8)    R16       1
    C11(9)    R0        -10
    C11(9)    R1        6
    C11(9)    R2        1
    C11(9)    R7        4
    C11(9)    R8        11
    C11(9)    R11       6
    C11(9)    R12       18
    C11(9)    R13       16
    C11(9)    R15       10
    C12(11)   OBJ       -4
    C12(11)   R0        5
    C12(11)   R1        -9
    C12(11)   R2        -7
    C12(11)   R7        5
    C12(11)   R8        15
    C12(11)   R10       18
    C12(11)   R11       4
    C12(11)   R12       7
    C12(11)   R13       18
    C12(11)   R14       11
    C12(11)   R15       1
    C13(9)    OBJ       -1
    C13(9)    R1        -9
    C13(9)    R2        5
    C13(9)    R4        15
    C13(9)    R6        13
    C13(9)    R10       4
    C13(9)    R11       15
    C13(9)    R12       16
    C13(9)    R13       4
    C13(9)    R16       17
    C14(14)   OBJ       -4
    C14(14)   R0        2
    C14(14)   R1        8
    C14(14)   R2        6
    C14(14)   R3        -1
    C14(14)   R4        19
    C14(14)   R6        13
    C14(14)   R7        -1
    C14(14)   R9        19
    C14(14)   R10       14
    C14(14)   R11       2
    C14(14)   R13       2
    C14(14)   R14       18
    C14(14)   R15       6
    C14(14)   R16       9
    C15(1)    R3        1
    C16(1)    R4        1
    C17(1)    R5        1
    C18(1)    R6        1
    C19(1)    R7        1
    C20(1)    R8        1
    C21(1)    R9        1
    C22(1)    R10       1
    C23(1)    R11       1
    C24(1)    R12       1
    C25(1)    R13       1
    C26(1)    R14       1
    C27(1)    R15       1
    C28(1)    R16       1
    C29(1)    R17       1
RHS
    RHS1      R0        -8.6981203007518815e+01
    RHS1      R1        1.7681077694235591e+02
    RHS1      R2        86.2537593984963
    RHS1      R3        96
    RHS1      R4        50
    RHS1      R5        78
    RHS1      R6        59
    RHS1      R7        97
    RHS1      R8        71
    RHS1      R9        79
    RHS1      R10       81
    RHS1      R11       68
    RHS1      R12       52
    RHS1      R13       50
    RHS1      R14       60
    RHS1      R15       69
    RHS1      R16       86
    RHS1      R17       2
BOUNDS
 UP BND1      I0(6)     2
 UP BND1      I1(7)     2
 UP BND1      I2(7)     2
 UP BND1      I3(9)     2
 UP BND1      I4(9)     2
 UP BND1      I5(7)     2
ENDATA
